p cnf 10 55
-1 -6 0
-1 -7 0
-2 -6 0
-2 -7 0
-1 -11 0
-1 -12 0
-2 -11 0
-2 -12 0
-1 -21 0
-1 -22 0
-2 -21 0
-2 -22 0
-6 -16 0
-6 -17 0
-7 -16 0
-7 -17 0
-6 -21 0
-6 -22 0
-7 -21 0
-7 -22 0
-11 -16 0
-11 -17 0
-12 -16 0
-12 -17 0
-11 -21 0
-11 -22 0
-12 -21 0
-12 -22 0
-1 -6 0
-1 -11 0
-1 -16 0
-1 -21 0
-6 -11 0
-6 -16 0
-6 -21 0
-11 -16 0
-11 -21 0
-16 -21 0
1 6 11 16 21 0
-2 -7 0
-2 -12 0
-2 -17 0
-2 -22 0
-7 -12 0
-7 -17 0
-7 -22 0
-12 -17 0
-12 -22 0
-17 -22 0
2 7 12 17 22 0
-1 -2 0
-6 -7 0
-11 -12 0
-16 -17 0
-21 -22 0
